40
0 1 0.27 0.22
0 2 0.47 0.22
0 3 0.58 0.22
0 4 0.62 0.3
0 5 0.54 0.19
0 6 0.14 0.1
0 7 0.38 0.15
0 8 0.39 0.34
0 9 0.47 0.21
0 10 0.48 0.27
0 11 0.74 0.29
0 12 0.66 0.23
0 13 0.74 0.25
0 14 0.71 0.35
0 15 0.44 0.23
0 16 0.78 0.18
0 17 0.68 0.28
0 18 0.72 0.32
0 19 0.5 0.28
0 20 0.52 0.42
0 21 0.34 0.23
0 22 0.54 0.34
0 23 0.59 0.18
0 24 0.72 0.27
0 25 0.71 0.32
0 26 0.46 0.33
0 27 0.65 0.32
0 28 0.54 0.26
0 29 0.46 0.29
0 30 0.64 0.35
0 31 0.76 0.32
0 32 0.42 0.26
0 33 0.44 0.26
0 34 0.54 0.16
0 35 0.68 0.28
0 36 0.66 0.28
0 37 0.61 0.28
0 38 0.36 0.07
0 39 0.75 0.29
1 2 0.54 0.11
1 3 0.7 0.14
1 4 0.66 0.25
1 5 0.53 0.06
1 6 0.41 0.32
1 7 0.57 0.1
1 8 0.6 0.22
1 9 0.2 0.11
1 10 0.75 0.17
1 11 0.53 0.22
1 12 0.65 0.13
1 13 0.54 0.2
1 14 0.64 0.22
1 15 0.53 0.17
1 16 0.51 0.04
1 17 0.45 0.16
1 18 0.52 0.24
1 19 0.58 0.25
1 20 0.63 0.3
1 21 0.51 0.18
1 22 0.56 0.32
1 23 0.51 0.12
1 24 0.58 0.24
1 25 0.62 0.17
1 26 0.65 0.22
1 27 0.54 0.22
1 28 0.69 0.16
1 29 0.44 0.26
1 30 0.43 0.22
1 31 0.54 0.1
1 32 0.66 0.25
1 33 0.17 0.04
1 34 0.6 0.06
1 35 0.48 0.14
1 36 0.7 0.22
1 37 0.34 0.12
1 38 0.36 0.17
1 39 0.67 0.14
2 3 0.68 0.16
2 4 0.44 0.27
2 5 0.56 0.17
2 6 0.61 0.32
2 7 0.75 0.21
2 8 0.48 0.26
2 9 0.54 0.13
2 10 0.52 0.06
2 11 0.56 0.28
2 12 0.43 0.15
2 13 0.54 0.24
2 14 0.74 0.26
2 15 0.56 0.06
2 16 0.47 0.07
2 17 0.53 0.27
2 18 0.34 0.26
2 19 0.57 0.27
2 20 0.6 0.34
2 21 0.39 0.2
2 22 0.56 0.34
2 23 0.6 0.23
2 24 0.4 0.27
2 25 0.3 0.12
2 26 0.52 0.25
2 27 0.55 0.24
2 28 0.38 0.22
2 29 0.53 0.27
2 30 0.55 0.33
2 31 0.58 0.21
2 32 0.64 0.28
2 33 0.58 0.15
2 34 0.7 0.08
2 35 0.32 0.17
2 36 0.61 0.33
2 37 0.52 0.23
2 38 0.66 0.19
2 39 0.64 0.25
3 4 0.58 0.11
3 5 0.42 0.2
3 6 0.72 0.31
3 7 0.55 0.24
3 8 0.62 0.22
3 9 0.8 0.03
3 10 0.79 0.2
3 11 0.56 0.27
3 12 0.57 0.15
3 13 0.66 0.23
3 14 0.82 0.28
3 15 0.53 0.22
3 16 0.48 0.1
3 17 0.48 0.29
3 18 0.66 0.3
3 19 0.74 0.27
3 20 0.66 0.24
3 21 0.54 0.26
3 22 0.62 0.26
3 23 0.62 0.26
3 24 0.58 0.3
3 25 0.66 0.28
3 26 0.78 0.19
3 27 0.66 0.24
3 28 0.76 0.21
3 29 0.5 0.12
3 30 0.91 0.24
3 31 0.6 0.24
3 32 0.54 0.15
3 33 0.67 0.18
3 34 0.66 0.08
3 35 0.44 0.2
3 36 0.87 0.28
3 37 0.69 0.26
3 38 0.88 0.17
3 39 0.5 0.2
4 5 0.53 0.27
4 6 0.48 0.2
4 7 0.4 0.23
4 8 0.74 0.26
4 9 0.59 0.14
4 10 0.6 0.31
4 11 0.76 0.31
4 12 0.71 0.18
4 13 0.46 0.29
4 14 0.69 0.34
4 15 0.58 0.33
4 16 0.35 0.21
4 17 0.46 0.19
4 18 0.39 0.22
4 19 0.7 0.35
4 20 0.64 0.32
4 21 0.7 0.31
4 22 0.44 0.2
4 23 0.62 0.33
4 24 0.66 0.31
4 25 0.56 0.39
4 26 0.24 0.08
4 27 0.56 0.2
4 28 0.62 0.25
4 29 0.36 0.23
4 30 0.53 0.13
4 31 0.6 0.25
4 32 0.2 0.04
4 33 0.49 0.26
4 34 0.58 0.19
4 35 0.34 0.31
4 36 0.52 0.31
4 37 0.52 0.36
4 38 0.43 0.28
4 39 0.64 0.3
5 6 0.44 0.29
5 7 0.49 0.04
5 8 0.62 0.16
5 9 0.6 0.17
5 10 0.42 0.23
5 11 0.62 0.16
5 12 0.18 0.16
5 13 0.42 0.25
5 14 0.63 0.22
5 15 0.66 0.23
5 16 0.58 0.1
5 17 0.58 0.12
5 18 0.48 0.3
5 19 0.52 0.23
5 20 0.55 0.3
5 21 0.2 0.12
5 22 0.55 0.32
5 23 0.2 0.06
5 24 0.62 0.3
5 25 0.65 0.23
5 26 0.62 0.26
5 27 0.43 0.2
5 28 0.42 0.1
5 29 0.58 0.26
5 30 0.61 0.28
5 31 0.59 0.16
5 32 0.48 0.24
5 33 0.54 0.1
5 34 0.52 0.12
5 35 0.48 0.18
5 36 0.46 0.16
5 37 0.59 0.17
5 38 0.64 0.19
5 39 0.56 0.18
6 7 0.52 0.25
6 8 0.53 0.25
6 9 0.56 0.31
6 10 0.42 0.3
6 11 0.74 0.3
6 12 0.52 0.33
6 13 0.62 0.33
6 14 0.57 0.36
6 15 0.58 0.33
6 16 0.68 0.28
6 17 0.54 0.18
6 18 0.64 0.27
6 19 0.43 0.37
6 20 0.38 0.32
6 21 0.48 0.33
6 22 0.68 0.39
6 23 0.64 0.28
6 24 0.76 0.17
6 25 0.6 0.4
6 26 0.32 0.28
6 27 0.64 0.26
6 28 0.54 0.32
6 29 0.32 0.2
6 30 0.58 0.33
6 31 0.68 0.24
6 32 0.28 0.16
6 33 0.58 0.3
6 34 0.47 0.26
6 35 0.7 0.38
6 36 0.58 0.3
6 37 0.67 0.38
6 38 0.42 0.17
6 39 0.64 0.39
7 8 0.72 0.2
7 9 0.52 0.21
7 10 0.74 0.27
7 11 0.36 0.18
7 12 0.64 0.19
7 13 0.38 0.21
7 14 0.64 0.22
7 15 0.67 0.27
7 16 0.48 0.14
7 17 0.8 0.16
7 18 0.51 0.28
7 19 0.62 0.24
7 20 0.54 0.3
7 21 0.69 0.08
7 22 0.48 0.28
7 23 0.69 0.1
7 24 0.52 0.34
7 25 0.65 0.26
7 26 0.44 0.24
7 27 0.56 0.24
7 28 0.56 0.12
7 29 0.68 0.3
7 30 0.74 0.32
7 31 0.38 0.2
7 32 0.6 0.27
7 33 0.64 0.14
7 34 0.45 0.16
7 35 0.43 0.14
7 36 0.56 0.2
7 37 0.69 0.13
7 38 0.6 0.22
7 39 0.61 0.14
8 9 0.76 0.23
8 10 0.65 0.3
8 11 0.5 0.19
8 12 0.8 0.25
8 13 0.73 0.22
8 14 0.59 0.25
8 15 0.74 0.28
8 16 0.62 0.2
8 17 0.68 0.07
8 18 0.61 0.29
8 19 0.7 0.26
8 20 0.42 0.31
8 21 0.59 0.28
8 22 0.36 0.19
8 23 0.71 0.2
8 24 0.74 0.24
8 25 0.5 0.15
8 26 0.61 0.25
8 27 0.56 0.15
8 28 0.63 0.21
8 29 0.43 0.1
8 30 0.7 0.26
8 31 0.88 0.13
8 32 0.68 0.22
8 33 0.58 0.19
8 34 0.48 0.18
8 35 0.68 0.24
8 36 0.77 0.19
8 37 0.71 0.24
8 38 0.6 0.29
8 39 0.6 0.24
9 10 0.65 0.17
9 11 0.73 0.24
9 12 0.52 0.12
9 13 0.58 0.2
9 14 0.54 0.26
9 15 0.51 0.19
9 16 0.51 0.07
9 17 0.65 0.27
9 18 0.48 0.27
9 19 0.6 0.24
9 20 0.6 0.27
9 21 0.58 0.23
9 22 0.42 0.29
9 23 0.64 0.23
9 24 0.52 0.27
9 25 0.42 0.25
9 26 0.5 0.22
9 27 0.52 0.21
9 28 0.69 0.18
9 29 0.64 0.15
9 30 0.63 0.27
9 31 0.65 0.21
9 32 0.76 0.18
9 33 0.37 0.15
9 34 0.69 0.05
9 35 0.36 0.17
9 36 0.74 0.3
9 37 0.54 0.23
9 38 0.16 0.14
9 39 0.78 0.23
10 11 0.72 0.31
10 12 0.24 0.18
10 13 0.54 0.3
10 14 0.44 0.32
10 15 0.52 0.12
10 16 0.52 0.13
10 17 0.82 0.26
10 18 0.73 0.25
10 19 0.62 0.31
10 20 0.58 0.4
10 21 0.26 0.26
10 22 0.71 0.36
10 23 0.38 0.24
10 24 0.34 0.24
10 25 0.23 0.15
10 26 0.48 0.24
10 27 0.61 0.28
10 28 0.74 0.25
10 29 0.5 0.32
10 30 0.66 0.32
10 31 0.5 0.2
10 32 0.7 0.32
10 33 0.69 0.14
10 34 0.58 0.12
10 35 0.45 0.23
10 36 0.61 0.34
10 37 0.65 0.29
10 38 0.59 0.2
10 39 0.84 0.24
11 12 0.5 0.13
11 13 0.62 0.22
11 14 0.5 0.06
11 15 0.66 0.33
11 16 0.57 0.22
11 17 0.61 0.12
11 18 0.64 0.29
11 19 0.62 0.18
11 20 0.52 0.14
11 21 0.49 0.21
11 22 0.47 0.3
11 23 0.7 0.14
11 24 0.42 0.29
11 25 0.58 0.27
11 26 0.75 0.23
11 27 0.7 0.2
11 28 0.2 0.06
11 29 0.56 0.29
11 30 0.81 0.27
11 31 0.74 0.18
11 32 0.78 0.27
11 33 0.7 0.22
11 34 0.69 0.2
11 35 0.42 0.15
11 36 0.42 0.18
11 37 0.63 0.3
11 38 0.66 0.22
11 39 0.85 0.14
12 13 0.32 0.26
12 14 0.46 0.19
12 15 0.63 0.21
12 16 0.54 0.09
12 17 0.66 0.21
12 18 0.59 0.29
12 19 0.56 0.24
12 20 0.41 0.27
12 21 0.38 0.17
12 22 0.56 0.22
12 23 0.38 0.15
12 24 0.48 0.2
12 25 0.47 0.27
12 26 0.64 0.1
12 27 0.61 0.23
12 28 0.5 0.07
12 29 0.4 0.27
12 30 0.73 0.31
12 31 0.52 0.23
12 32 0.66 0.22
12 33 0.48 0.17
12 34 0.34 0.07
12 35 0.39 0.19
12 36 0.64 0.19
12 37 0.41 0.22
12 38 0.6 0.18
12 39 0.6 0.21
13 14 0.61 0.16
13 15 0.46 0.27
13 16 0.37 0.17
13 17 0.52 0.15
13 18 0.62 0.07
13 19 0.24 0.21
13 20 0.7 0.24
13 21 0.62 0.13
13 22 0.5 0.23
13 23 0.5 0.23
13 24 0.2 0.17
13 25 0.44 0.19
13 26 0.7 0.33
13 27 0.52 0.15
13 28 0.51 0.28
13 29 0.3 0.21
13 30 0.48 0.24
13 31 0.52 0.21
13 32 0.58 0.3
13 33 0.37 0.24
13 34 0.66 0.19
13 35 0.22 0.07
13 36 0.49 0.24
13 37 0.49 0.08
13 38 0.53 0.18
13 39 0.68 0.24
14 15 0.68 0.27
14 16 0.38 0.19
14 17 0.38 0.18
14 18 0.48 0.23
14 19 0.48 0.23
14 20 0.54 0.08
14 21 0.62 0.15
14 22 0.75 0.27
14 23 0.81 0.2
14 24 0.58 0.33
14 25 0.67 0.21
14 26 0.64 0.28
14 27 0.69 0.26
14 28 0.58 0.12
14 29 0.54 0.35
14 30 0.41 0.21
14 31 0.74 0.24
14 32 0.49 0.33
14 33 0.66 0.18
14 34 0.3 0.21
14 35 0.53 0.09
14 36 0.58 0.22
14 37 0.3 0.24
14 38 0.56 0.28
14 39 0.83 0.08
15 16 0.39 0.13
15 17 0.6 0.26
15 18 0.57 0.32
15 19 0.3 0.28
15 20 0.6 0.35
15 21 0.78 0.26
15 22 0.66 0.38
15 23 0.52 0.28
15 24 0.66 0.33
15 25 0.29 0.13
15 26 0.74 0.31
15 27 0.56 0.3
15 28 0.72 0.28
15 29 0.69 0.21
15 30 0.73 0.39
15 31 0.38 0.21
15 32 0.71 0.34
15 33 0.36 0.21
15 34 0.68 0.14
15 35 0.24 0.2
15 36 0.6 0.35
15 37 0.67 0.29
15 38 0.35 0.16
15 39 0.58 0.19
16 17 0.54 0.2
16 18 0.56 0.2
16 19 0.42 0.21
16 20 0.78 0.27
16 21 0.78 0.16
16 22 0.57 0.28
16 23 0.43 0.16
16 24 0.43 0.2
16 25 0.37 0.19
16 26 0.59 0.19
16 27 0.66 0.18
16 28 0.76 0.16
16 29 0.63 0.22
16 30 0.77 0.26
16 31 0.36 0.14
16 32 0.55 0.21
16 33 0.34 0.08
16 34 0.6 0.02
16 35 0.15 0.1
16 36 0.7 0.26
16 37 0.63 0.16
16 38 0.67 0.13
16 39 0.62 0.18
17 18 0.38 0.22
17 19 0.5 0.19
17 20 0.26 0.24
17 21 0.61 0.24
17 22 0.52 0.21
17 23 0.62 0.18
17 24 0.5 0.31
17 25 0.61 0.22
17 26 0.43 0.18
17 27 0.47 0.08
17 28 0.41 0.14
17 29 0.56 0.17
17 30 0.79 0.3
17 31 0.59 0.06
17 32 0.26 0.15
17 33 0.28 0.12
17 34 0.68 0.22
17 35 0.39 0.22
17 36 0.43 0.12
17 37 0.44 0.23
17 38 0.65 0.31
17 39 0.49 0.22
18 19 0.71 0.24
18 20 0.46 0.24
18 21 0.52 0.2
18 22 0.71 0.16
18 23 0.4 0.27
18 24 0.66 0.1
18 25 0.5 0.26
18 26 0.38 0.28
18 27 0.63 0.22
18 28 0.44 0.26
18 29 0.32 0.2
18 30 0.47 0.17
18 31 0.4 0.28
18 32 0.59 0.26
18 33 0.55 0.28
18 34 0.36 0.22
18 35 0.41 0.14
18 36 0.62 0.17
18 37 0.18 0.15
18 38 0.64 0.25
18 39 0.81 0.31
19 20 0.46 0.21
19 21 0.48 0.32
19 22 0.69 0.28
19 23 0.65 0.17
19 24 0.44 0.34
19 25 0.59 0.39
19 26 0.72 0.28
19 27 0.42 0.15
19 28 0.42 0.17
19 29 0.39 0.23
19 30 0.49 0.24
19 31 0.65 0.25
19 32 0.69 0.31
19 33 0.6 0.27
19 34 0.5 0.19
19 35 0.46 0.28
19 36 0.58 0.07
19 37 0.57 0.29
19 38 0.52 0.21
19 39 0.7 0.31
20 21 0.35 0.23
20 22 0.64 0.35
20 23 0.66 0.24
20 24 0.69 0.34
20 25 0.58 0.29
20 26 0.4 0.24
20 27 0.73 0.32
20 28 0.67 0.2
20 29 0.49 0.3
20 30 0.79 0.29
20 31 0.66 0.3
20 32 0.52 0.36
20 33 0.54 0.26
20 34 0.74 0.29
20 35 0.63 0.17
20 36 0.68 0.14
20 37 0.29 0.22
20 38 0.44 0.36
20 39 0.35 0.16
21 22 0.48 0.22
21 23 0.4 0.18
21 24 0.56 0.3
21 25 0.49 0.18
21 26 0.46 0.27
21 27 0.44 0.28
21 28 0.48 0.2
21 29 0.54 0.34
21 30 0.68 0.32
21 31 0.48 0.28
21 32 0.68 0.35
21 33 0.64 0.22
21 34 0.67 0.18
21 35 0.67 0.06
21 36 0.5 0.28
21 37 0.64 0.16
21 38 0.58 0.29
21 39 0.7 0.22
22 23 0.35 0.32
22 24 0.6 0.26
22 25 0.64 0.3
22 26 0.4 0.12
22 27 0.55 0.13
22 28 0.27 0.24
22 29 0.62 0.29
22 30 0.34 0.33
22 31 0.52 0.27
22 32 0.56 0.24
22 33 0.69 0.3
22 34 0.56 0.26
22 35 0.42 0.18
22 36 0.74 0.33
22 37 0.67 0.31
22 38 0.38 0.27
22 39 0.57 0.26
23 24 0.56 0.31
23 25 0.48 0.28
23 26 0.51 0.25
23 27 0.23 0.2
23 28 0.62 0.08
23 29 0.66 0.26
23 30 0.69 0.28
23 31 0.39 0.16
23 32 0.57 0.3
23 33 0.34 0.1
23 34 0.62 0.18
23 35 0.28 0.16
23 36 0.66 0.1
23 37 0.58 0.23
23 38 0.56 0.13
23 39 0.72 0.2
24 25 0.44 0.36
24 26 0.74 0.23
24 27 0.57 0.32
24 28 0.61 0.23
24 29 0.5 0.3
24 30 0.68 0.27
24 31 0.72 0.34
24 32 0.52 0.3
24 33 0.57 0.28
24 34 0.82 0.22
24 35 0.42 0.24
24 36 0.69 0.27
24 37 0.69 0.25
24 38 0.52 0.33
24 39 0.88 0.37
25 26 0.71 0.37
25 27 0.62 0.3
25 28 0.58 0.33
25 29 0.61 0.22
25 30 0.44 0.28
25 31 0.67 0.24
25 32 0.76 0.37
25 33 0.65 0.21
25 34 0.74 0.2
25 35 0.22 0.12
25 36 0.57 0.34
25 37 0.68 0.27
25 38 0.36 0.28
25 39 0.64 0.29
26 27 0.6 0.25
26 28 0.67 0.17
26 29 0.54 0.31
26 30 0.69 0.21
26 31 0.56 0.24
26 32 0.44 0.12
26 33 0.48 0.18
26 34 0.34 0.17
26 35 0.58 0.29
26 36 0.76 0.29
26 37 0.56 0.32
26 38 0.48 0.26
26 39 0.54 0.28
27 28 0.66 0.22
27 29 0.43 0.25
27 30 0.62 0.33
27 31 0.46 0.14
27 32 0.36 0.16
27 33 0.57 0.2
27 34 0.39 0.16
27 35 0.51 0.22
27 36 0.66 0.2
27 37 0.81 0.22
27 38 0.36 0.27
27 39 0.82 0.3
28 29 0.44 0.28
28 30 0.61 0.33
28 31 0.78 0.2
28 32 0.67 0.22
28 33 0.52 0.18
28 34 0.8 0.14
28 35 0.62 0.21
28 36 0.62 0.12
28 37 0.52 0.25
28 38 0.65 0.21
28 39 0.65 0.14
29 30 0.6 0.36
29 31 0.6 0.23
29 32 0.3 0.2
29 33 0.61 0.29
29 34 0.68 0.2
29 35 0.52 0.28
29 36 0.43 0.16
29 37 0.5 0.29
29 38 0.74 0.22
29 39 0.74 0.32
30 31 0.5 0.24
30 32 0.73 0.17
30 33 0.6 0.18
30 34 0.5 0.28
30 35 0.66 0.26
30 36 0.48 0.31
30 37 0.63 0.32
30 38 0.72 0.39
30 39 0.44 0.26
31 32 0.4 0.21
31 33 0.5 0.06
31 34 0.57 0.16
31 35 0.51 0.24
31 36 0.66 0.18
31 37 0.58 0.22
31 38 0.55 0.27
31 39 0.66 0.16
32 33 0.54 0.27
32 34 0.75 0.2
32 35 0.54 0.31
32 36 0.64 0.27
32 37 0.46 0.36
32 38 0.63 0.31
32 39 0.46 0.26
33 34 0.7 0.1
33 35 0.49 0.18
33 36 0.55 0.2
33 37 0.51 0.16
33 38 0.53 0.21
33 39 0.5 0.1
34 35 0.52 0.12
34 36 0.67 0.26
34 37 0.54 0.18
34 38 0.53 0.11
34 39 0.53 0.2
35 36 0.58 0.26
35 37 0.48 0.15
35 38 0.52 0.23
35 39 0.47 0.17
36 37 0.54 0.32
36 38 0.64 0.23
36 39 0.87 0.26
37 38 0.58 0.26
37 39 0.64 0.26
38 39 0.62 0.31
